NAME 
ROWS
 N  OBJ
 L  R0      
 L  R1      
 L  R2      
 E  R3      
 E  R4      
 E  R5      
 E  R6      
 E  R7      
 E  R8      
 E  R9      
 E  R10     
 E  R11     
 E  R12     
 E  R13     
 E  R14     
 E  R15     
 E  R16     
 E  R17     
COLUMNS
    MARKER    'MARKER'                 'INTORG'
    I0(10)    OBJ       -117
    I0(10)    R0        -74
    I0(10)    R1        179
    I0(10)    R2        -177
    I0(10)    R3        18
    I0(10)    R4        2
    I0(10)    R6        12
    I0(10)    R7        6
    I0(10)    R8        14
    I0(10)    R9        9
    I0(10)    R17       1
    I1(9)     OBJ       -15
    I1(9)     R0        -114
    I1(9)     R1        77
    I1(9)     R2        -16
    I1(9)     R4        18
    I1(9)     R5        6
    I1(9)     R6        6
    I1(9)     R7        11
    I1(9)     R9        -1
    I1(9)     R17       1
    I2(7)     OBJ       31
    I2(7)     R0        60
    I2(7)     R1        -110
    I2(7)     R2        55
    I2(7)     R3        13
    I2(7)     R7        8
    I2(7)     R9        7
    I2(7)     R17       1
    I3(5)     OBJ       -200
    I3(5)     R0        -131
    I3(5)     R1        18
    I3(5)     R2        -9
    I3(5)     R3        16
    I3(5)     R17       1
    I4(9)     OBJ       -22
    I4(9)     R0        31
    I4(9)     R1        -53
    I4(9)     R2        -131
    I4(9)     R3        18
    I4(9)     R4        13
    I4(9)     R5        19
    I4(9)     R6        13
    I4(9)     R9        3
    I4(9)     R17       1
    I5(8)     OBJ       -179
    I5(8)     R0        -52
    I5(8)     R1        1
    I5(8)     R2        -192
    I5(8)     R3        13
    I5(8)     R5        6
    I5(8)     R6        5
    I5(8)     R7        13
    I5(8)     R17       1
    I6(7)     OBJ       133
    I6(7)     R0        41
    I6(7)     R1        -77
    I6(7)     R2        -191
    I6(7)     R3        12
    I6(7)     R8        17
    I6(7)     R9        4
    I6(7)     R17       1
    MARKER    'MARKER'                 'INTEND'
    C7(10)    OBJ       -2
    C7(10)    R0        3
    C7(10)    R1        -2
    C7(10)    R2        4
    C7(10)    R4        15
    C7(10)    R7        3
    C7(10)    R8        12
    C7(10)    R10       10
    C7(10)    R11       9
    C7(10)    R12       12
    C7(10)    R14       2
    C8(8)     OBJ       -9
    C8(8)     R1        9
    C8(8)     R2        -3
    C8(8)     R5        13
    C8(8)     R6        18
    C8(8)     R7        8
    C8(8)     R8        14
    C8(8)     R10       17
    C8(8)     R13       17
    C9(12)    OBJ       9
    C9(12)    R0        -6
    C9(12)    R1        -2
    C9(12)    R3        13
    C9(12)    R4        14
    C9(12)    R5        12
    C9(12)    R6        5
    C9(12)    R7        10
    C9(12)    R8        6
    C9(12)    R9        12
    C9(12)    R11       6
    C9(12)    R12       15
    C9(12)    R14       12
    C10(11)   OBJ       8
    C10(11)   R0        -7
    C10(11)   R1        -5
    C10(11)   R2        -5
    C10(11)   R4        1
    C10(11)   R5        8
    C10(11)   R6        -1
    C10(11)   R8        17
    C10(11)   R11       18
    C10(11)   R12       9
    C10(11)   R14       2
    C10(11)   R16       1
    C11(9)    OBJ       -5
    C11(9)    R0        1
    C11(9)    R1        3
    C11(9)    R2        4
    C11(9)    R5        15
    C11(9)    R11       4
    C11(9)    R12       6
    C11(9)    R13       11
    C11(9)    R15       11
    C11(9)    R16       9
    C12(8)    OBJ       -3
    C12(8)    R0        -5
    C12(8)    R1        -8
    C12(8)    R2        4
    C12(8)    R3        4
    C12(8)    R11       1
    C12(8)    R13       17
    C12(8)    R15       13
    C12(8)    R16       13
    C13(10)   OBJ       -6
    C13(10)   R0        -1
    C13(10)   R1        -10
    C13(10)   R2        2
    C13(10)   R3        10
    C13(10)   R6        18
    C13(10)   R8        6
    C13(10)   R9        2
    C13(10)   R10       14
    C13(10)   R12       7
    C13(10)   R15       8
    C14(10)   OBJ       4
    C14(10)   R0        -10
    C14(10)   R1        4
    C14(10)   R2        1
    C14(10)   R6        10
    C14(10)   R7        6
    C14(10)   R8        7
    C14(10)   R10       -1
    C14(10)   R11       7
    C14(10)   R14       12
    C14(10)   R16       6
    C15(1)    R3        1
    C16(1)    R4        1
    C17(1)    R5        1
    C18(1)    R6        1
    C19(1)    R7        1
    C20(1)    R8        1
    C21(1)    R9        1
    C22(1)    R10       1
    C23(1)    R11       1
    C24(1)    R12       1
    C25(1)    R13       1
    C26(1)    R14       1
    C27(1)    R15       1
    C28(1)    R16       1
    C29(1)    R17       1
RHS
    RHS1      R0        -185.851695630167
    RHS1      R1        1.5027838704235563e+00
    RHS1      R2        -174.519655812384
    RHS1      R3        67
    RHS1      R4        75
    RHS1      R5        50
    RHS1      R6        59
    RHS1      R7        52
    RHS1      R8        80
    RHS1      R9        63
    RHS1      R10       94
    RHS1      R11       90
    RHS1      R12       58
    RHS1      R13       96
    RHS1      R14       95
    RHS1      R15       57
    RHS1      R16       95
    RHS1      R17       2
BOUNDS
 UP BND1      I0(10)    1
 UP BND1      I1(9)     1
 UP BND1      I2(7)     1
 UP BND1      I3(5)     1
 UP BND1      I4(9)     1
 UP BND1      I5(8)     1
 UP BND1      I6(7)     1
ENDATA
